
Gurobi 10.0.0 (win64) logging started Wed Jun 12 16:47:48 2024

Set parameter LogFile to value "C:\Users\ealvarezq\Documents\GitHub\Comillas\Models\JointResearch\05. Models\06.Benchmarking\B.Operation_cost\RTS24_mod2_ByStages_nc400/openStarNet_RTS24_mod2_ByStages_nc400.log"
Set parameter Method to value 2
Set parameter MIPFocus to value 1
Set parameter Presolve to value 2
Set parameter RINS to value 100
Set parameter MIPGap to value 0.01
Set parameter Threads to value 9
Set parameter TimeLimit to value 259200
Set parameter IterationLimit to value 760000000
Gurobi Optimizer version 10.0.0 build v10.0.0rc2 (win64)

CPU model: Intel(R) Core(TM) i7-8700 CPU @ 3.20GHz, instruction set [SSE2|AVX|AVX2]
Thread count: 6 physical cores, 12 logical processors, using up to 9 threads

Optimize a model with 142003 rows, 95663 columns and 386584 nonzeros
Model fingerprint: 0x0cfb26cc
Variable types: 95642 continuous, 21 integer (21 binary)
Coefficient statistics:
  Matrix range     [1e-03, 3e+02]
  Objective range  [1e+00, 1e+00]
  Bounds range     [3e-05, 3e+00]
  RHS range        [3e-05, 3e+00]
Presolve removed 84505 rows and 48304 columns
Presolve time: 0.58s
Presolved: 57498 rows, 47359 columns, 207615 nonzeros
Variable types: 47338 continuous, 21 integer (21 binary)
Root relaxation presolved: 57498 rows, 47359 columns, 207615 nonzeros

Root barrier log...

Ordering time: 0.01s

Barrier statistics:
 Dense cols : 21
 AA' NZ     : 3.854e+05
 Factor NZ  : 1.071e+06 (roughly 50 MB of memory)
 Factor Ops : 2.382e+07 (less than 1 second per iteration)
 Threads    : 8

                  Objective                Residual
Iter       Primal          Dual         Primal    Dual     Compl     Time
   0   6.54243386e+05 -1.40465631e+08  5.23e+00 8.00e+01  2.93e+03     1s
   1   1.02873091e+05 -3.60185038e+07  6.80e-01 7.30e-09  4.04e+02     1s
   2   4.20462165e+04 -2.03119922e+07  1.76e-01 1.59e-08  1.76e+02     1s
   3   2.16095796e+04 -1.87178572e+06  8.80e-03 4.93e-09  1.44e+01     1s
   4   1.24369061e+04 -2.32426258e+05  5.66e-04 6.15e-10  1.83e+00     1s
   5   5.27190396e+03 -5.61048348e+04  7.45e-05 1.35e-10  4.58e-01     1s
   6   1.65539297e+03 -1.13938786e+04  1.44e-05 2.46e-11  9.74e-02     1s
   7   6.35113876e+02 -4.24869696e+03  3.62e-06 8.83e-12  3.64e-02     1s
   8   3.29235969e+02 -2.10720923e+03  1.12e-06 4.40e-12  1.82e-02     1s
   9   1.62320840e+02 -3.86189660e+02  1.90e-07 8.35e-13  4.09e-03     1s
  10   1.11133046e+02 -1.23506053e+02  7.56e-08 5.21e-13  1.75e-03     1s
  11   9.04141828e+01 -2.74983216e+01  4.24e-08 4.18e-13  8.80e-04     1s
  12   7.75895763e+01  1.81928942e+01  2.55e-08 4.13e-13  4.43e-04     1s
  13   6.96335317e+01  3.49161641e+01  1.57e-08 4.57e-13  2.59e-04     1s
  14   6.44714719e+01  4.16883725e+01  9.31e-09 3.56e-13  1.70e-04     1s
  15   6.19475326e+01  4.49882552e+01  6.23e-09 4.16e-13  1.27e-04     1s
  16   6.02788432e+01  5.04032162e+01  4.31e-09 3.69e-13  7.37e-05     1s
  17   5.92824351e+01  5.26880376e+01  3.00e-09 5.17e-13  4.92e-05     1s
  18   5.87765374e+01  5.32408880e+01  2.40e-09 4.58e-13  4.13e-05     1s
  19   5.85360538e+01  5.41797216e+01  2.08e-09 5.23e-13  3.25e-05     1s
  20   5.80383336e+01  5.47484221e+01  1.48e-09 7.24e-13  2.46e-05     2s
  21   5.78127360e+01  5.54076301e+01  1.19e-09 4.48e-13  1.79e-05     2s
  22   5.75178483e+01  5.56783044e+01  8.10e-10 5.41e-13  1.37e-05     2s
  23   5.71726437e+01  5.61075625e+01  3.43e-10 6.45e-13  7.95e-06     2s
  24   5.70403714e+01  5.63646374e+01  1.73e-10 5.58e-13  5.04e-06     2s
  25   5.70011358e+01  5.65181707e+01  1.24e-10 4.37e-13  3.60e-06     2s
  26   5.69786923e+01  5.65643482e+01  9.55e-11 3.58e-13  3.09e-06     2s
  27   5.69634374e+01  5.66753196e+01  7.70e-11 2.98e-13  2.15e-06     2s
  28   5.69343855e+01  5.67523878e+01  4.19e-11 5.24e-13  1.36e-06     2s
  29   5.69223014e+01  5.68116933e+01  2.78e-11 4.09e-13  8.25e-07     2s
  30   5.69072751e+01  5.68363649e+01  8.24e-11 4.55e-13  5.29e-07     2s
  31   5.69047911e+01  5.68578982e+01  3.76e-11 3.65e-13  3.50e-07     2s
  32   5.69029551e+01  5.68817256e+01  4.34e-11 6.65e-13  1.58e-07     2s
  33   5.69008162e+01  5.68883686e+01  5.99e-11 5.09e-13  9.29e-08     2s
  34   5.68995664e+01  5.68949555e+01  3.70e-10 2.08e-13  3.44e-08     2s
  35   5.68991684e+01  5.68965781e+01  9.41e-11 2.21e-13  1.93e-08     2s
  36   5.68990698e+01  5.68975518e+01  7.11e-11 4.76e-13  1.13e-08     2s
  37   5.68989451e+01  5.68978025e+01  2.40e-10 3.55e-13  8.53e-09     2s
  38   5.68989171e+01  5.68979548e+01  2.41e-10 3.38e-13  7.18e-09     2s
  39   5.68988576e+01  5.68981618e+01  1.98e-10 6.00e-13  5.19e-09     2s
  40   5.68988354e+01  5.68983384e+01  1.82e-10 4.26e-13  3.71e-09     2s
  41   5.68988185e+01  5.68983676e+01  9.81e-11 3.08e-13  3.36e-09     2s
  42   5.68988080e+01  5.68984064e+01  1.83e-10 3.72e-13  3.00e-09     2s
  43   5.68987987e+01  5.68985097e+01  1.28e-10 5.62e-13  2.16e-09     2s
  44   5.68987897e+01  5.68985303e+01  1.03e-10 5.80e-13  1.94e-09     2s
  45   5.68987720e+01  5.68985875e+01  3.38e-10 5.04e-13  1.38e-09     2s
  46   5.68987617e+01  5.68986353e+01  2.33e-10 1.54e-12  9.44e-10     2s
  47   5.68987602e+01  5.68986929e+01  1.44e-09 8.45e-13  5.03e-10     2s
  48   5.68987597e+01  5.68987333e+01  7.19e-10 1.01e-12  1.97e-10     2s
  49   5.68987593e+01  5.68987584e+01  1.48e-09 4.17e-13  6.18e-12     2s
  50   5.68987592e+01  5.68987592e+01  3.79e-09 5.04e-13  1.34e-13     2s

Barrier solved model in 50 iterations and 2.33 seconds (2.06 work units)
Optimal objective 5.68987592e+01


Root relaxation: objective 5.689876e+01, 8841 iterations, 2.09 seconds (1.88 work units)

    Nodes    |    Current Node    |     Objective Bounds      |     Work
 Expl Unexpl |  Obj  Depth IntInf | Incumbent    BestBd   Gap | It/Node Time

     0     0   56.89876    0   18          -   56.89876      -     -    4s
H    0     0                     102.1825890   56.89876  44.3%     -    5s
H    0     0                      92.3342300   57.72362  37.5%     -   12s
     0     0   57.72362    0   10   92.33423   57.72362  37.5%     -   12s
     0     0   57.74644    0    9   92.33423   57.74644  37.5%     -   13s
H    0     0                      89.2442647   57.93113  35.1%     -   15s
     0     0   57.93113    0   13   89.24426   57.93113  35.1%     -   15s
     0     0   57.94181    0   13   89.24426   57.94181  35.1%     -   17s
     0     0   57.94752    0   13   89.24426   57.94752  35.1%     -   17s
     0     0   57.95243    0   13   89.24426   57.95243  35.1%     -   18s
     0     0   57.95599    0   12   89.24426   57.95599  35.1%     -   18s
     0     0   57.95656    0   13   89.24426   57.95656  35.1%     -   18s
     0     0   57.95658    0   13   89.24426   57.95658  35.1%     -   18s
     0     0   58.07038    0   11   89.24426   58.07038  34.9%     -   20s
     0     0   58.08307    0   10   89.24426   58.08307  34.9%     -   22s
H    0     0                      82.0571009   58.08659  29.2%     -   23s
     0     0   58.08659    0   11   82.05710   58.08659  29.2%     -   23s
     0     0   58.08810    0   11   82.05710   58.08810  29.2%     -   23s
     0     0   58.08971    0   11   82.05710   58.08971  29.2%     -   24s
     0     0   58.09184    0   11   82.05710   58.09184  29.2%     -   24s
     0     0   58.09233    0   11   82.05710   58.09233  29.2%     -   24s
     0     0   58.09275    0   11   82.05710   58.09275  29.2%     -   24s
     0     0   58.09275    0   11   82.05710   58.09275  29.2%     -   24s
     0     0   58.10934    0   11   82.05710   58.10934  29.2%     -   26s
     0     0   58.10951    0   12   82.05710   58.10951  29.2%     -   26s
     0     0   58.10967    0   12   82.05710   58.10967  29.2%     -   27s
     0     0   58.10967    0   12   82.05710   58.10967  29.2%     -   27s
     0     0   58.11064    0   11   82.05710   58.11064  29.2%     -   30s
H    0     0                      73.8232461   58.11064  21.3%     -  103s
     0     2   58.11064    0   11   73.82325   58.11064  21.3%     -  104s
     1     4   58.16950    1   16   73.82325   58.11794  21.3%  2794  106s
     3     8   58.97925    2   17   73.82325   58.21471  21.1%  5387  110s
     7    16   59.22994    3   16   73.82325   58.98412  20.1%  5030  115s
    15    25   59.27357    4   15   73.82325   59.23042  19.8%  4361  120s
    24    34   60.16881    5   14   73.82325   59.27632  19.7%  4000  138s
    33    43   60.82940    5   14   73.82325   60.18272  18.5%  4977  141s
    42    48   61.01013    6   13   73.82325   60.18272  18.5%  4446  146s
    51    55   62.41743    7   12   73.82325   60.18272  18.5%  4360  150s
    72    71   63.81468    8   12   73.82325   60.18272  18.5%  3687  158s
    82    80   65.50621    9   11   73.82325   60.18272  18.5%  3589  166s
    91    89   67.88455   10   11   73.82325   60.18272  18.5%  3632  212s
   100    98   70.39105   10   11   73.82325   60.18272  18.5%  3600  678s
   109   107   70.39385   11   10   73.82325   60.18272  18.5%  3621  685s
   126   115   73.80910   12    9   73.82325   60.18272  18.5%  3464  694s
   143   123     cutoff   13        73.82325   60.19311  18.5%  3317  700s
   167   118   62.35619    7   12   73.82325   60.19311  18.5%  3075  708s
   188   120   72.48673    7   12   73.82325   60.19311  18.5%  2963  716s
   208   117     cutoff    8        73.82325   60.19311  18.5%  2921  728s
   227   128   64.89396    8   12   73.82325   60.19311  18.5%  2852  738s
   238   130   67.83941    9   12   73.82325   60.19311  18.5%  2921  747s
   258   131   66.37950    8   12   73.82325   60.19311  18.5%  2877  760s
   275   138     cutoff   10        73.82325   60.19311  18.5%  2938  772s
   302   141     cutoff   10        73.82325   60.19311  18.5%  2891  786s
   325   150   71.77126   10   11   73.82325   60.19311  18.5%  2855  798s
   354   149     cutoff   11        73.82325   62.12569  15.8%  2769  811s
   390   162   70.49350    7   10   73.82325   62.12569  15.8%  2713  824s
   419   169   73.62720    8   11   73.82325   62.50629  15.3%  2708  835s
   460   169   65.16810    9   11   73.82325   62.69985  15.1%  2606  851s
   494   171   72.47424   12    9   73.82325   62.69985  15.1%  2606  865s
   520   177     cutoff   15        73.82325   63.85497  13.5%  2624  879s
   568   182   66.14067    9   10   73.82325   63.85497  13.5%  2534  893s
   613   184   68.72752   10   10   73.82325   63.85497  13.5%  2477  907s
   657   195   71.52136   11    9   73.82325   63.85497  13.5%  2427  922s
   704   198   73.81877   12    9   73.82325   63.89027  13.5%  2390  939s
   746   199     cutoff   10        73.82325   66.15086  10.4%  2371  954s
   797   206     cutoff   13        73.82325   66.53838  9.87%  2322 1371s
   832   219   70.78888   11    9   73.82325   66.56253  9.84%  2320 1389s
   904   219     cutoff   20        73.82325   67.02173  9.21%  2252 1409s
   982   231   70.55013   13    8   73.82325   67.47029  8.61%  2174 1434s
  1014   223     cutoff   18        73.82325   67.52368  8.53%  2159 1456s
  1100   224   71.96762   10    9   73.82325   68.05152  7.82%  2108 1699s
  1143   208     cutoff   11        73.82325   68.05152  7.82%  2083 1724s
  1234   215   71.45015    9   11   73.82325   68.05152  7.82%  2048 1749s
  1345   222   73.17276   16    4   73.82325   68.72833  6.90%  1983 1774s
  1461   227   73.29002   17    3   73.82325   69.26414  6.18%  1926 1800s
  1608   251     cutoff   10        73.82325   69.50423  5.85%  1849 1826s
  1762   236     cutoff   17        73.82325   69.82809  5.41%  1775 1854s
  1921   211   72.62279   13    7   73.82325   70.21612  4.89%  1711 1881s
  2069   196   73.21768   14    6   73.82325   70.55701  4.42%  1664 1910s
  2265   133   73.36178   16    3   73.82325   70.99805  3.83%  1594 1938s
  2493    35   73.67508   10    9   73.82325   71.75530  2.80%  1513 1959s
  2689     0     cutoff   12        73.82325   72.59048  1.67%  1445 1963s

Cutting planes:
  Implied bound: 235
  MIR: 1168
  Inf proof: 1
  Relax-and-lift: 239

Explored 2730 nodes (3933596 simplex iterations) in 1963.82 seconds (3609.78 work units)
Thread count was 9 (of 12 available processors)

Solution count 5: 73.8232 82.0571 89.2443 ... 102.183

Optimal solution found (tolerance 1.00e-02)
Best objective 7.382324610965e+01, best bound 7.382324610965e+01, gap 0.0000%

Gurobi 10.0.0 (win64) logging started Wed Jun 12 17:22:26 2024

Set parameter LogFile to value "C:\Users\ealvarezq\Documents\GitHub\Comillas\Models\JointResearch\05. Models\06.Benchmarking\B.Operation_cost\RTS24_mod2_ByStages_nc400/openStarNet_RTS24_mod2_ByStages_nc400.log"
Set parameter Method to value 2
Set parameter MIPFocus to value 1
Set parameter Presolve to value 2
Set parameter RINS to value 100
Set parameter MIPGap to value 0.01
Set parameter Threads to value 9
Set parameter TimeLimit to value 259200
Set parameter IterationLimit to value 760000000
Gurobi Optimizer version 10.0.0 build v10.0.0rc2 (win64)

CPU model: Intel(R) Core(TM) i7-8700 CPU @ 3.20GHz, instruction set [SSE2|AVX|AVX2]
Thread count: 6 physical cores, 12 logical processors, using up to 9 threads

Optimize a model with 142003 rows, 95642 columns and 352963 nonzeros
Model fingerprint: 0x765d74e9
Coefficient statistics:
  Matrix range     [1e-03, 3e+02]
  Objective range  [1e+00, 1e+00]
  Bounds range     [3e-05, 3e+00]
  RHS range        [3e-05, 2e+01]
Presolve removed 119604 rows and 55319 columns
Presolve time: 0.18s
Presolved: 22399 rows, 41052 columns, 101072 nonzeros

Ordering time: 0.00s

Barrier statistics:
 AA' NZ     : 5.854e+04
 Factor NZ  : 2.213e+05 (roughly 22 MB of memory)
 Factor Ops : 3.243e+06 (less than 1 second per iteration)
 Threads    : 9

                  Objective                Residual
Iter       Primal          Dual         Primal    Dual     Compl     Time
   0   7.08789031e+06 -1.25546567e+08  5.30e+01 1.00e+02  3.05e+04     0s
   1   3.92676694e+05 -9.47213205e+07  2.65e+00 3.64e-12  2.62e+03     0s
   2   6.36201640e+04 -1.80302509e+07  3.45e-01 6.37e-12  3.46e+02     0s
   3   2.92742414e+04 -3.42248079e+06  4.84e-02 4.09e-12  5.38e+01     0s
   4   2.05018754e+04 -9.17088982e+05  5.10e-03 1.93e-12  1.32e+01     0s
   5   1.33077096e+04 -3.55970054e+05  1.87e-04 1.82e-12  5.13e+00     0s
   6   6.71456452e+03 -6.19044480e+04  3.64e-06 1.36e-12  9.52e-01     0s
   7   2.28013102e+03 -1.35605686e+04  5.23e-07 7.46e-13  2.20e-01     0s
   8   1.02866039e+03 -5.61180053e+03  1.72e-07 7.10e-13  9.22e-02     0s
   9   3.41610833e+02 -1.68381422e+03  1.61e-08 6.08e-13  2.81e-02     0s
  10   1.80010528e+02 -2.76950035e+02  2.10e-09 7.78e-13  6.34e-03     0s
  11   1.15133518e+02 -7.05340311e+01  5.08e-10 7.07e-13  2.58e-03     0s
  12   9.50807691e+01  1.69289973e+01  2.22e-10 6.51e-13  1.08e-03     0s
  13   8.48523125e+01  5.05261080e+01  1.06e-10 7.03e-13  4.76e-04     0s
  14   7.89899010e+01  6.32145077e+01  4.67e-11 5.05e-13  2.19e-04     0s
  15   7.60105696e+01  6.94806889e+01  1.87e-11 7.00e-13  9.06e-05     0s
  16   7.44164163e+01  7.26506856e+01  3.28e-11 7.56e-13  2.45e-05     0s
  17   7.40697447e+01  7.33993957e+01  1.68e-10 5.64e-13  9.30e-06     0s
  18   7.38640829e+01  7.37590346e+01  5.41e-10 1.18e-12  1.46e-06     0s
  19   7.38278671e+01  7.38161560e+01  2.39e-09 6.34e-13  1.63e-07     0s
  20   7.38243010e+01  7.38224793e+01  3.43e-10 4.56e-13  2.53e-08     0s
  21   7.38235858e+01  7.38231439e+01  2.39e-10 1.07e-12  6.13e-09     0s
  22   7.38232609e+01  7.38232315e+01  8.84e-10 7.71e-13  4.08e-10     0s
  23   7.38232461e+01  7.38232461e+01  8.85e-10 6.48e-13  5.93e-13     0s
  24   7.38232461e+01  7.38232461e+01  1.72e-12 4.55e-13  3.22e-18     0s

Barrier solved model in 24 iterations and 0.50 seconds (0.48 work units)
Optimal objective 7.38232461e+01

Crossover log...

    4660 DPushes remaining with DInf 0.0000000e+00                 1s
       0 DPushes remaining with DInf 0.0000000e+00                 1s

    1521 PPushes remaining with PInf 0.0000000e+00                 1s
       0 PPushes remaining with PInf 0.0000000e+00                 1s

  Push phase complete: Pinf 0.0000000e+00, Dinf 3.0382231e-13      1s

Iteration    Objective       Primal Inf.    Dual Inf.      Time
    1645    7.3823246e+01   0.000000e+00   0.000000e+00      1s

Use crossover to convert LP symmetric solution to basic solution...
Crossover log...

       0 DPushes remaining with DInf 0.0000000e+00                 1s

     820 PPushes remaining with PInf 0.0000000e+00                 1s
       0 PPushes remaining with PInf 0.0000000e+00                 1s

  Push phase complete: Pinf 0.0000000e+00, Dinf 2.3416879e-13      1s

Iteration    Objective       Primal Inf.    Dual Inf.      Time
    2550    7.3823246e+01   0.000000e+00   0.000000e+00      1s

Solved in 2550 iterations and 0.78 seconds (0.65 work units)
Optimal objective  7.382324611e+01
